(set-logic QF_SLIA)
(set-option :produce-models true)
(declare-fun x () String)
(assert (str.in_re x (re.++ (str.to_re "2060003") (re.+ (re.range "5" "7")) (re.opt (re.union (re.range "6" "9") (str.to_re "88888"))))))
(assert (= (mod (mod (str.to_int x) 295) 137) 63))
(assert (> (str.len x) 100))
(check-sat)
(get-model)